p cnf 296 882
c ind 207 201 202 203 194 195 196 197 198 199 0
c ind 200 184 216 217 218 219 220 221 222 185 0
c ind 181 182 183 204 205 206 0
50 -51 93 0
50 -51 73 0
50 -51 90 0
-50 51 0
-73 -90 -50 -93 0
51 -52 -60 -64 -68 0
-51 68 0
-51 52 0
-51 64 0
-51 60 0
52 -53 -54 -57 194 0
52 53 -54 -57 -194 0
-52 57 0
53 194 -52 0
-52 54 0
-53 -194 -52 0
53 195 201 0
53 -184 195 0
-53 -195 0
-53 -201 184 0
54 -55 205 206 207 0
-54 55 0
-54 -207 0
-54 -205 0
-54 -206 0
55 -56 181 182 0
-55 56 0
-55 -182 0
-55 -181 0
56 183 184 185 204 0
-56 -204 0
-56 -185 0
-56 -183 0
-56 -184 0
57 58 -200 0
57 -59 198 0
57 198 -200 0
57 58 -59 0
59 200 -57 0
-58 -198 -57 0
58 -181 199 0
58 196 199 0
-58 -199 0
-58 -196 181 0
59 -182 216 0
59 198 216 0
-59 -216 0
-59 -198 182 0
60 -61 62 63 219 0
60 61 62 63 -219 0
-60 -62 0
61 219 -60 0
-60 -63 0
-61 -219 -60 0
61 -204 220 0
61 217 220 0
-61 -220 0
-61 -217 204 0
-182 -200 62 216 0
198 -200 62 216 0
-62 200 0
-62 -216 0
-62 182 -198 0
198 -199 63 0
-196 198 63 181 0
-63 -198 0
-63 -181 199 0
-63 196 199 0
64 65 -66 67 196 0
64 65 66 67 -196 0
-64 -65 0
-66 -196 -64 0
-64 -67 0
66 196 -64 0
-201 202 65 203 0
-201 202 65 -207 0
-65 201 0
-65 -202 0
-65 -203 207 0
66 -185 197 0
66 194 197 0
-66 -197 0
-66 -194 185 0
221 -222 67 0
-219 221 67 205 0
-67 -221 0
-67 -205 222 0
-67 219 222 0
68 -69 -70 217 0
68 69 -70 -217 0
-68 70 0
69 217 -68 0
-69 -217 -68 0
69 -183 218 0
69 200 218 0
-69 -218 0
-69 -200 183 0
70 -201 221 0
70 -71 72 0
70 72 -201 0
70 -71 221 0
71 201 -70 0
-72 -221 -70 0
71 202 203 0
71 202 -207 0
-71 -202 0
-71 -203 207 0
72 -205 222 0
72 219 222 0
-72 -222 0
-72 -219 205 0
74 -76 73 0
-73 -74 0
-73 76 0
74 -75 -192 0
74 75 192 0
-74 -75 192 0
-74 75 -192 0
75 193 190 0
-75 -190 0
-75 -193 0
76 77 -84 -86 -88 0
-76 -77 0
-76 88 0
-76 86 0
-76 84 0
77 -78 -206 0
77 -78 -192 221 0
77 -78 192 -221 0
-77 78 0
-77 192 206 221 0
-77 -221 206 -192 0
78 79 81 0
-78 -79 0
-78 -81 0
79 80 206 0
79 221 206 209 0
79 -209 206 -221 0
-79 -206 0
-79 -80 -209 221 0
-79 -80 209 -221 0
80 -221 212 186 214 0
80 -186 -212 -214 221 0
-80 221 212 0
-80 -186 -221 0
-80 -212 214 0
-80 -214 186 0
81 83 82 206 0
-81 -206 0
-81 -83 0
-81 -82 0
-188 82 -190 -211 221 0
-82 211 0
-82 -221 0
-82 188 0
-82 190 0
83 -221 190 188 211 0
-83 221 0
-83 -211 0
-83 -188 0
-83 -190 0
84 85 -209 0
84 -213 209 -85 0
84 -85 209 212 0
-209 -84 -85 0
85 -84 209 0
-212 -84 209 213 0
85 210 211 0
-85 -210 0
-85 -211 0
86 -186 87 0
86 87 187 214 0
-86 -87 0
-187 -86 186 0
-214 -86 186 0
-188 87 190 0
-191 87 190 0
-87 -190 0
-87 191 188 0
88 190 89 0
88 -188 89 0
88 -191 89 0
-88 -89 0
-190 -88 188 191 0
-214 89 212 215 0
-89 -212 0
-89 214 0
-89 -215 0
90 -91 186 0
90 -91 -187 0
90 -91 -214 0
-90 91 0
-186 -90 187 214 0
91 -212 92 0
91 209 92 213 0
-91 -92 0
-209 -91 212 0
-213 -91 212 0
-212 92 214 0
-215 92 214 0
-92 -214 0
-92 215 212 0
93 -94 188 0
93 94 -188 0
-188 -93 -94 0
94 -93 188 0
94 189 186 0
-94 -186 0
-94 -189 0
103 -51 95 0
96 -51 95 0
99 -51 95 0
51 -95 0
-95 -96 -99 -103 0
96 97 98 -241 0
96 97 -98 241 0
-96 -97 0
-98 -241 -96 0
98 241 -96 0
-261 263 97 0
258 -261 97 262 0
-97 261 0
-97 -258 -263 0
-97 -262 -263 0
98 239 242 0
-98 -239 0
-98 -242 0
99 -100 101 237 0
99 100 101 -237 0
-99 -101 0
100 237 -99 0
-100 -237 -99 0
100 235 238 0
-100 -235 0
-100 -238 0
102 261 101 0
261 -263 101 264 0
-101 -261 0
-101 -102 263 0
-101 -102 -264 0
102 258 262 0
-102 -258 0
-102 -262 0
103 -104 -107 111 114 0
-103 107 0
-103 -114 0
-103 104 0
-103 -111 0
104 105 -106 235 0
104 106 -235 239 0
104 -106 235 239 0
104 105 106 -235 0
-106 -235 -104 0
106 235 -104 0
-105 -239 -104 0
105 237 240 0
-105 -237 0
-105 -240 0
106 236 263 0
-106 -236 0
-106 -263 0
107 108 -109 110 -258 0
107 -108 -109 110 258 0
-107 -110 0
108 258 -107 0
-107 109 0
-108 -258 -107 0
108 259 260 0
-108 -259 0
-108 -260 0
109 206 -263 0
109 206 264 0
-109 -206 0
263 -264 -109 0
-237 239 110 0
239 -240 110 0
-110 -239 0
-110 237 240 0
-112 -113 111 221 -235 0
-111 -221 0
-111 113 0
-111 112 0
-111 235 0
112 -260 -261 -263 0
-112 260 0
-112 261 0
-112 263 0
113 -237 -239 -241 -258 0
-113 258 0
-113 237 0
-113 241 0
-113 239 0
-115 -116 114 -221 235 0
-114 116 0
-114 221 0
-114 115 0
-114 -235 0
115 260 261 263 0
-115 -260 0
-115 -263 0
-115 -261 0
116 237 239 241 258 0
-116 -258 0
-116 -241 0
-116 -237 0
-116 -239 0
117 118 -51 0
117 73 -51 0
90 117 -51 0
51 -117 0
-73 -117 -90 -118 0
118 -186 -188 0
118 188 186 0
-188 -118 186 0
-186 -118 188 0
119 120 -51 0
119 -192 -51 190 0
119 -190 -51 192 0
51 -119 0
-120 -190 -119 -192 0
-120 192 190 -119 0
120 -122 121 0
-120 -121 0
-120 122 0
-186 121 188 0
-121 186 0
-121 -188 0
-76 122 -90 0
76 -122 0
90 -122 0
123 -128 -51 0
123 129 -51 0
123 124 -51 0
51 -123 0
-123 -124 128 -129 0
124 125 87 -126 -186 0
124 -126 -125 87 186 0
-87 -124 0
-124 -186 -125 0
-124 126 0
-124 125 186 0
125 187 214 0
-125 -187 0
-125 -214 0
77 126 -91 -127 0
-126 127 0
91 -126 0
-77 -126 0
127 -192 121 0
127 190 121 0
-121 -127 0
-190 -127 192 0
-209 128 211 0
-128 209 0
-128 -211 0
129 -130 190 0
129 -130 -191 0
129 -130 -188 0
-129 130 0
-190 -129 188 191 0
130 -209 -131 0
130 211 -131 0
-130 131 0
-211 -130 209 0
131 89 212 0
131 89 -209 0
131 89 -213 0
-89 -131 0
-212 209 -131 213 0
-87 132 -51 0
132 134 -51 0
132 133 -51 0
51 -132 0
-132 -133 87 -134 0
-126 133 -129 0
126 -133 0
129 -133 0
134 -186 -214 0
134 214 186 0
-214 -134 186 0
-186 -134 214 0
135 139 -51 0
126 135 -51 0
135 136 -51 0
51 -135 0
-126 -135 -136 -139 0
136 -209 137 0
136 211 137 0
-136 -137 0
-211 -136 209 0
137 -138 0
-188 137 190 0
-137 -190 138 0
-137 188 138 0
-214 138 186 0
-138 -186 0
-138 214 0
139 -188 -131 0
139 190 -131 0
131 -139 0
-190 -139 188 0
140 143 -51 0
140 141 -51 0
51 -140 0
-140 -141 -143 0
77 141 92 -142 0
-141 142 0
-92 -141 0
-77 -141 0
142 -136 -127 0
127 -142 0
136 -142 0
143 -209 -212 0
143 209 212 214 0
143 209 212 -215 0
-212 -143 209 0
-209 -143 212 0
-214 -143 212 215 0
144 145 -51 0
144 -214 -51 212 0
144 -212 -51 214 0
51 -144 0
-144 -145 -212 -214 0
-144 -145 212 214 0
77 145 -142 146 0
-77 -145 0
142 -145 0
-145 -146 0
-209 146 212 0
-146 209 0
-146 -212 0
147 -190 -51 0
147 -148 -51 0
147 149 -51 0
51 -147 0
-147 148 -149 190 0
-78 148 -221 0
-78 148 -206 0
78 -148 0
-148 221 206 0
149 211 -150 209 0
149 -209 -150 -212 0
-149 150 0
-211 -149 209 0
-209 -149 212 0
150 137 121 212 0
150 137 121 -214 0
-137 -150 0
-121 -150 0
-212 -150 214 0
-146 151 -51 0
152 151 -51 0
51 -151 0
-151 146 -152 0
152 -150 206 0
-152 -206 0
150 -152 0
152 153 -51 0
51 -153 0
-152 -153 0
-186 154 -51 0
155 154 -51 0
51 -154 0
-154 -155 186 0
155 214 206 212 0
155 -186 206 -214 0
-155 -206 0
-214 -155 186 0
-212 -155 214 0
155 156 -51 0
51 -156 0
-155 -156 0
-212 157 -51 0
-206 157 -51 0
51 -157 0
-157 212 206 0
-206 158 -51 0
-158 206 0
51 -158 0
159 188 -51 0
-74 159 -51 0
122 159 -51 0
51 -159 0
74 -122 -159 -188 0
160 192 -51 0
120 160 -51 0
51 -160 0
-120 -160 -192 0
161 209 -51 0
88 161 -51 0
124 161 -51 0
51 -161 0
-124 -209 -88 -161 0
162 186 -51 0
-87 162 -51 0
133 162 -51 0
51 -162 0
-133 -186 -162 87 0
163 164 -51 0
126 163 -51 0
130 163 -51 0
51 -163 0
-126 -164 -163 -130 0
-190 164 138 0
-164 190 0
-138 -164 0
165 212 -51 0
141 165 -51 0
51 -165 0
-141 -212 -165 0
166 214 -51 0
145 166 -51 0
51 -166 0
-145 -214 -166 0
149 167 -51 0
81 168 -51 167 0
51 -167 0
-167 -149 -168 0
-81 -167 -149 0
168 209 206 0
80 168 206 0
168 -221 206 0
-168 -206 0
-80 -209 -168 221 0
169 209 -51 0
169 170 -51 0
51 -169 0
-170 -169 -209 0
-212 -152 170 0
-170 212 0
152 -170 0
171 170 -51 0
51 -171 0
-170 -171 0
172 190 -51 0
155 172 -51 0
51 -172 0
-190 -172 -155 0
173 -206 -51 0
173 186 -51 0
51 -173 0
-186 -173 206 0
1 50 0
-1 -50 0
2 50 0
-2 -50 0
3 95 0
-3 -95 0
4 -117 0
-4 117 0
5 -119 0
-5 119 0
6 -123 0
-6 123 0
7 -132 0
-7 132 0
8 -135 0
-8 135 0
9 -140 0
-9 140 0
10 -144 0
-10 144 0
12 -147 0
-12 147 0
13 -151 0
-13 151 0
15 -153 0
-15 153 0
16 -154 0
-16 154 0
17 -156 0
-17 156 0
21 -157 0
-21 157 0
23 -158 0
-23 158 0
26 -158 0
-26 158 0
27 -159 0
-27 159 0
28 -160 0
-28 160 0
29 -161 0
-29 161 0
30 -162 0
-30 162 0
31 -163 0
-31 163 0
32 -165 0
-32 165 0
33 -166 0
-33 166 0
35 -167 0
-35 167 0
36 -169 0
-36 169 0
38 -171 0
-38 171 0
39 -172 0
-39 172 0
40 -156 0
-40 156 0
44 -173 0
-44 173 0
46 -158 0
-46 158 0
49 -158 0
-49 158 0
273 -4 -27 0
4 -273 0
27 -273 0
-27 -189 0
27 189 0
-28 274 -5 0
5 -274 0
28 -274 0
-28 -193 0
28 193 0
-6 275 -29 0
6 -275 0
29 -275 0
-29 -210 0
29 210 0
-7 276 -30 0
7 -276 0
30 -276 0
-30 -187 0
30 187 0
-8 277 -31 0
8 -277 0
31 -277 0
-31 -191 0
31 191 0
-9 278 -32 0
9 -278 0
32 -278 0
-32 -213 0
32 213 0
-10 279 -33 0
10 -279 0
33 -279 0
-33 -215 0
33 215 0
-12 -35 281 0
12 -281 0
35 -281 0
-35 -192 0
35 192 0
-13 282 -36 0
13 -282 0
36 -282 0
13 -211 0
-13 211 0
-15 284 -38 0
15 -284 0
38 -284 0
15 -209 0
-15 209 0
-16 -39 285 0
16 -285 0
39 -285 0
16 -188 0
-16 188 0
-17 -40 286 0
17 -286 0
40 -286 0
17 -190 0
-17 190 0
-21 -44 290 0
21 -290 0
44 -290 0
21 -214 0
-21 214 0
-23 -46 292 0
23 -292 0
46 -292 0
23 -186 0
-23 186 0
-26 -49 295 0
26 -295 0
49 -295 0
26 -212 0
-26 212 0
-1 0
-2 0
3 0
4 0
5 0
-11 0
-13 0
-14 0
-15 0
-16 0
-17 0
-18 0
-19 0
-20 0
-21 0
-22 0
-23 0
-24 0
-25 0
-26 0
27 0
29 0
30 0
31 0
32 0
33 0
34 0
-35 0
36 0
37 0
38 0
39 0
-40 0
41 0
42 0
43 0
44 0
45 0
-46 0
47 0
48 0
-49 0
50 0
51 0
52 0
54 0
55 0
56 0
57 0
60 0
-62 0
-63 0
64 0
-65 0
-67 0
68 0
70 0
-73 0
-82 0
84 0
85 0
86 0
-87 0
88 0
-89 0
90 0
91 0
-92 0
93 0
94 0
-95 0
96 0
-97 0
99 0
-101 0
103 0
104 0
107 0
109 0
-110 0
-111 0
-114 0
117 0
118 0
119 0
-121 0
125 0
127 0
-128 0
129 0
130 0
131 0
134 0
136 0
-137 0
-138 0
139 0
142 0
143 0
-146 0
149 0
150 0
-151 0
152 0
-153 0
-154 0
155 0
-156 0
-157 0
-158 0
159 0
161 0
162 0
163 0
-164 0
165 0
166 0
-167 0
168 0
169 0
-170 0
171 0
172 0
173 0
-174 0
-175 0
-176 0
-177 0
-178 0
-179 0
-180 0
-181 0
-182 0
-183 0
-184 0
-185 0
-186 0
-187 0
-188 0
-189 0
-190 0
-191 0
192 0
-204 0
-205 0
-206 0
-207 0
-208 0
-209 0
-210 0
-211 0
-212 0
-213 0
-214 0
-215 0
272 0
273 0
-280 0
-281 0
-282 0
-283 0
-284 0
-285 0
-286 0
-287 0
-288 0
-289 0
-290 0
-291 0
-292 0
-293 0
-294 0
-295 0
-256 0
-250 0
-251 0
-252 0
-243 0
-244 0
-245 0
-246 0
-247 0
-248 0
-249 0
-233 0
-265 0
-266 0
-267 0
-268 0
-269 0
-270 0
-271 0
-234 0
-230 0
-231 0
-232 0
-253 0
-254 0
-255 0

